100
32
10
23
25
1
17
1
9
9
18
11
14
1
26
8
3
11
1
17
1
1
2
5
1
1
6
1
1
2
2
17
2
1
2
5
1
4
2
18
1
1
5
1
2
1
1
19
7
1
18
19
1
2
3
1
1
2
1
1
16
2
1
4
1
1
1
3
19
1
1
18
5
4
4
1
2
1
18
4
1
4
1
3
1
1
1
1
1
3
1
1
2
1
1
1
3
2
1
2
3
1